p cnf 53 140
1 -31 0
1 -32 0
31 -31 0
32 -32 0
16 -33 0
16 -34 0
33 -33 0
34 -34 0
-2 -31 0
-2 -32 0
31 -31 0
32 -32 0
-17 -33 0
-17 -34 0
33 -33 0
34 -34 0
3 -31 0
3 -32 0
31 -31 0
32 -32 0
18 -33 0
18 -34 0
33 -33 0
34 -34 0
-4 -31 0
-4 -32 0
31 -31 0
32 -32 0
-19 -33 0
-19 -34 0
33 -33 0
34 -34 0
-5 -31 0
-5 -32 0
31 -31 0
32 -32 0
-20 -33 0
-20 -34 0
33 -33 0
34 -34 0
6 -35 -31 0
-6 35 -31 0
6 35 -32 0
-6 -35 -32 0
21 -35 -33 0
-21 35 -33 0
21 35 -34 0
-21 -35 -34 0
7 -31 0
7 -32 0
31 -31 0
32 -32 0
22 -33 0
22 -34 0
33 -33 0
34 -34 0
8 -31 0
8 -32 0
31 -31 0
32 -32 0
23 -33 0
23 -34 0
33 -33 0
34 -34 0
9 -31 0
9 -32 0
31 -31 0
32 -32 0
24 -33 0
24 -34 0
33 -33 0
34 -34 0
10 -36 -31 0
-10 36 -31 0
10 36 -32 0
-10 -36 -32 0
25 -36 -33 0
-25 36 -33 0
25 36 -34 0
-25 -36 -34 0
11 -31 0
11 -32 0
31 -31 0
32 -32 0
26 -33 0
26 -34 0
33 -33 0
34 -34 0
12 -31 0
12 -32 0
31 -31 0
32 -32 0
27 -33 0
27 -34 0
33 -33 0
34 -34 0
13 -31 0
13 -32 0
31 -31 0
32 -32 0
28 -33 0
28 -34 0
33 -33 0
34 -34 0
14 -31 0
14 -32 0
31 -31 0
32 -32 0
29 -33 0
29 -34 0
33 -33 0
34 -34 0
15 -31 0
15 -32 0
31 -31 0
32 -32 0
30 -33 0
30 -34 0
33 -33 0
34 -34 0
-50 31 0
50 -31 0
-51 32 0
50 -32 0
-50 -31 0
-51 -32 0
-52 31 50 0
52 -31 0
52 -50 0
-53 32 51 0
53 -32 0
53 -51 0
-52 -33 0
-53 -34 0
52 0
53 0
-31 34 0
-32 0
-33 0
-34 31 0
